NAME first_qp
ROWS
  N obj
  L c0
  L c1
COLUMNS
  x0  c0  1
  x0  c1  -1
  x1  obj  -32
  x1  c0  1
  x1  c1  2
RHS
  rhs obj -64
  rhs c0  7
  rhs c1  4
BOUNDS
  UP  BND  x1  4
QMATRIX
  x0  x0  2
  x1  x1  8
ENDATA
